(declare-const v0 Bool)
(declare-const v1 Bool)
(declare-const v2 Bool)
(declare-const v3 Bool)
(declare-const v4 Bool)
(assert (edge (or v0 v1) (or (not v1) (not v2))))
(assert (edge (or v0 v3 (not v2)) (or v2 (not v3))))
(assert (edge (or v4 (not v0)) (or v1 (not v3) (not v4))))
(assert (edge v0 (or v0 (not v2))))
(assert (edge v1 (or (not v3) (not v0))))
(assert (not (edge (not v0) (or v2 v3))))